Minimize
    r
Subject to
    x111 + x121 = 2
    x112 + x122 = 3
    x113 + x123 = 4
    x211 + x221 = 3
    x212 + x222 = 4
    x213 + x223 = 5
    x311 + x321 = 4
    x312 + x322 = 5
    x313 + x323 = 6
Bounds
    0 <= x111
    0 <= x112
    0 <= x113
    0 <= x121
    0 <= x122
    0 <= x123
    0 <= x211
    0 <= x212
    0 <= x213
    0 <= x221
    0 <= x222
    0 <= x223
    0 <= x311
    0 <= x312
    0 <= x313
    0 <= x321
    0 <= x322
    0 <= x323
    0 <= r
    r <= 1
End